num_features = 19;
num_usage_limits = 5;
num_plans = 5;
num_addons = 0;

features = ["tasks","zaps","singleStepZaps","multiStepZaps","premiumApps","filters","formatters","customIntegrations","paths","autoReplay","folderPermissions","premierSupport","sharedAppConnections","sharedWorkspace","userProvisioning","appsAccessControl","samlSingleSignOn","customDataRetention","accountCapture"];
usage_limits = ["usersLimit","tasksLimit","zapsLimit","updateTimeThreshold","premiumAppsLimit"];
plans = ["FREE","STARTER","PROFESSIONAL","TEAM","COMPANY"];
addons = [];

plans_prices = [0,24.99,61.25,373.75,748.75];
addons_prices = [];

linked_features = array2d(USAGE_LIMITS, FEATURES, [
    % usersLimit
    0,0,0,0,0,0,0,0,0,0,0,0,0,0,0,0,0,0,0,
    % tasksLimit
    1,0,0,0,0,0,0,0,0,0,0,0,0,0,0,0,0,0,0,
    % zapsLimit
    0,1,0,0,0,0,0,0,0,0,0,0,0,0,0,0,0,0,0,
    % updateTimeThreshold
    1,1,0,0,0,0,0,0,0,0,0,0,0,0,0,0,0,0,0,
    % premiumAppsLimit
    0,0,0,0,1,0,0,0,0,0,0,0,0,0,0,0,0,0,0
]);

plans_features = array2d(PLANS, FEATURES, [
    % FREE
    1,1,1,0,0,0,0,0,0,0,0,0,0,0,0,0,0,0,0,
    % STARTER
    1,1,1,1,1,1,1,1,0,0,0,0,0,0,0,0,0,0,0,
    % PROFESSIONAL
    1,1,1,1,1,1,1,1,1,1,0,0,0,0,0,0,0,0,0,
    % TEAM
    1,1,1,1,1,1,1,1,1,1,1,1,1,1,0,0,0,0,0,
    % COMPANY
    1,1,1,1,1,1,1,1,1,1,1,1,1,1,1,1,1,1,1
]);
plans_usage_limits = array2d(PLANS, USAGE_LIMITS, [
    % FREE
    1,100,5,15,0,
    % STARTER
    1,750,20,15,3,
    % PROFESSIONAL
    1,2000,Infinity,2,Infinity,
    % TEAM
    Infinity,50000,Infinity,1,Infinity,
    % COMPANY
    Infinity,100000,Infinity,1,Infinity
]);

addons_features = array2d(ADDONS, FEATURES, [
]);
addons_usage_limits = array2d(ADDONS, USAGE_LIMITS, [
]);
addons_usage_limits_extensions = array2d(ADDONS, USAGE_LIMITS, [
]);
addons_available_for = array2d(ADDONS, PLANS, [
]);
addons_depends_on = array2d(ADDONS, ADDONS, [
]);
